;symbolic execution tree
(push)
(assert (le x0 java.lang.Integer))
(check-sat)
(push)
(assert (le x0 java.lang.Integer))
(check-sat)
(push)
(assert (le x1 java.lang.StringBuffer))
(check-sat)
(pop)
(push)
(assert (not (le x1 java.lang.StringBuffer)))
(check-sat)
(pop)
(push)
(assert (le x0 java.lang.Integer))
(check-sat)
(pop)
(push)
(assert (not (le x0 java.lang.Integer)))
(check-sat)
(pop)
(push)
(assert (le x1 java.lang.String))
(check-sat)
(pop)
(push)
(assert (not (le x1 java.lang.String)))
(check-sat)
(pop)
(push)
(assert (le x1 java.lang.String))
(check-sat)
(pop)
(push)
(assert (not (le x1 java.lang.String)))
(check-sat)
(pop)
(pop)
(push)
(assert (not (le x0 java.lang.Integer)))
(check-sat)
(pop)
(push)
(assert (le x0 java.lang.Integer))
(check-sat)
(push)
(assert (le x1 com.lowagie.text.pdf.PdfString))
(check-sat)
(pop)
(push)
(assert (not (le x1 com.lowagie.text.pdf.PdfString)))
(check-sat)
(pop)
(pop)
(push)
(assert (not (le x0 java.lang.Integer)))
(check-sat)
(pop)
(push)
(assert (le x1 java.lang.StringBuffer))
(check-sat)
(pop)
(push)
(assert (not (le x1 java.lang.StringBuffer)))
(check-sat)
(push)
(assert (le x0 java.lang.Integer))
(check-sat)
(pop)
(push)
(assert (not (le x0 java.lang.Integer)))
(check-sat)
(pop)
(pop)
(push)
(assert (le x0 java.lang.Integer))
(check-sat)
(pop)
(push)
(assert (not (le x0 java.lang.Integer)))
(check-sat)
(pop)
(push)
(assert (le x0 java.lang.Integer))
(check-sat)
(pop)
(push)
(assert (not (le x0 java.lang.Integer)))
(check-sat)
(pop)
(push)
(assert (le x1 java.lang.StringBuffer))
(check-sat)
(pop)
(push)
(assert (not (le x1 java.lang.StringBuffer)))
(check-sat)
(pop)
(push)
(assert (le x1 com.lowagie.text.pdf.PdfObject))
(check-sat)
(push)
(assert (le x0 java.lang.Integer))
(check-sat)
(pop)
(push)
(assert (not (le x0 java.lang.Integer)))
(check-sat)
(pop)
(push)
(assert (le x1 com.lowagie.text.pdf.PdfObject))
(check-sat)
(pop)
(push)
(assert (not (le x1 com.lowagie.text.pdf.PdfObject)))
(check-sat)
(pop)
(push)
(assert (le x0 java.lang.Integer))
(check-sat)
(push)
(assert (le x1 com.lowagie.text.pdf.PRStream))
(check-sat)
(pop)
(push)
(assert (not (le x1 com.lowagie.text.pdf.PRStream)))
(check-sat)
(pop)
(push)
(assert (le x1 com.lowagie.text.pdf.PdfObject))
(check-sat)
(pop)
(push)
(assert (not (le x1 com.lowagie.text.pdf.PdfObject)))
(check-sat)
(pop)
(pop)
(push)
(assert (not (le x0 java.lang.Integer)))
(check-sat)
(pop)
(pop)
(push)
(assert (not (le x1 com.lowagie.text.pdf.PdfObject)))
(check-sat)
(push)
(assert (le x0 java.lang.Integer))
(check-sat)
(pop)
(push)
(assert (not (le x0 java.lang.Integer)))
(check-sat)
(pop)
(pop)
(push)
(assert (le x0 java.lang.Integer))
(check-sat)
(pop)
(push)
(assert (not (le x0 java.lang.Integer)))
(check-sat)
(pop)
(push)
(assert (le x0 java.lang.Integer))
(check-sat)
(push)
(assert (le x1 com.lowagie.text.pdf.PdfName))
(check-sat)
(push)
(assert (le x0 java.lang.Integer))
(check-sat)
(pop)
(push)
(assert (not (le x0 java.lang.Integer)))
(check-sat)
(pop)
(pop)
(push)
(assert (not (le x1 com.lowagie.text.pdf.PdfName)))
(check-sat)
(push)
(assert (le x0 java.lang.Integer))
(check-sat)
(pop)
(push)
(assert (not (le x0 java.lang.Integer)))
(check-sat)
(pop)
(pop)
(push)
(assert (le x0 java.lang.Integer))
(check-sat)
(pop)
(push)
(assert (not (le x0 java.lang.Integer)))
(check-sat)
(pop)
(push)
(assert (le x1 java.lang.StringBuffer))
(check-sat)
(pop)
(push)
(assert (not (le x1 java.lang.StringBuffer)))
(check-sat)
(push)
(assert (le x1 java.lang.StringBuffer))
(check-sat)
(pop)
(push)
(assert (not (le x1 java.lang.StringBuffer)))
(check-sat)
(pop)
(pop)
(push)
(assert (le x0 java.lang.Integer))
(check-sat)
(push)
(assert (le x1 jcmdline.AbstractParameter))
(check-sat)
(pop)
(push)
(assert (not (le x1 jcmdline.AbstractParameter)))
(check-sat)
(pop)
(pop)
(push)
(assert (not (le x0 java.lang.Integer)))
(check-sat)
(pop)
(push)
(assert (le x1 java.lang.String))
(check-sat)
(push)
(assert (le x1 java.lang.String))
(check-sat)
(pop)
(push)
(assert (not (le x1 java.lang.String)))
(check-sat)
(pop)
(push)
(assert (le x0 java.lang.Integer))
(check-sat)
(pop)
(push)
(assert (not (le x0 java.lang.Integer)))
(check-sat)
(pop)
(push)
(assert (le x0 java.lang.Integer))
(check-sat)
(pop)
(push)
(assert (not (le x0 java.lang.Integer)))
(check-sat)
(pop)
(pop)
(push)
(assert (not (le x1 java.lang.String)))
(check-sat)
(pop)
(push)
(assert (le x1 java.lang.StringBuffer))
(check-sat)
(pop)
(push)
(assert (not (le x1 java.lang.StringBuffer)))
(check-sat)
(pop)
(push)
(assert (le x1 com.lowagie.text.pdf.internal.PdfVersionImp))
(check-sat)
(pop)
(push)
(assert (not (le x1 com.lowagie.text.pdf.internal.PdfVersionImp)))
(check-sat)
(push)
(assert (le x1 com.lowagie.text.pdf.internal.PdfVersionImp))
(check-sat)
(pop)
(push)
(assert (not (le x1 com.lowagie.text.pdf.internal.PdfVersionImp)))
(check-sat)
(pop)
(pop)
(pop)
(push)
(assert (not (le x0 java.lang.Integer)))
(check-sat)
(pop)
(push)
(assert (le x1 java.lang.StringBuffer))
(check-sat)
(pop)
(push)
(assert (not (le x1 java.lang.StringBuffer)))
(check-sat)
(pop)
(push)
(assert (le x1 java.lang.StringBuffer))
(check-sat)
(push)
(assert (le x1 java.lang.StringBuffer))
(check-sat)
(pop)
(push)
(assert (not (le x1 java.lang.StringBuffer)))
(check-sat)
(pop)
(pop)
(push)
(assert (not (le x1 java.lang.StringBuffer)))
(check-sat)
(push)
(assert (le x0 java.lang.Integer))
(check-sat)
(push)
(assert (le x1 java.lang.StringBuffer))
(check-sat)
(pop)
(push)
(assert (not (le x1 java.lang.StringBuffer)))
(check-sat)
(pop)
(push)
(assert (le x0 java.lang.Integer))
(check-sat)
(pop)
(push)
(assert (not (le x0 java.lang.Integer)))
(check-sat)
(pop)
(push)
(assert (le x1 java.lang.StringBuffer))
(check-sat)
(pop)
(push)
(assert (not (le x1 java.lang.StringBuffer)))
(check-sat)
(pop)
(pop)
(push)
(assert (not (le x0 java.lang.Integer)))
(check-sat)
(pop)
(pop)
(push)
(assert (le x0 java.lang.Integer))
(check-sat)
(push)
(assert (le x0 java.lang.Integer))
(check-sat)
(pop)
(push)
(assert (not (le x0 java.lang.Integer)))
(check-sat)
(pop)
(push)
(assert (le x1 java.lang.StringBuffer))
(check-sat)
(pop)
(push)
(assert (not (le x1 java.lang.StringBuffer)))
(check-sat)
(pop)
(pop)
(push)
(assert (not (le x0 java.lang.Integer)))
(check-sat)
(pop)
(push)
(assert (le x0 java.lang.Integer))
(check-sat)
(pop)
(push)
(assert (not (le x0 java.lang.Integer)))
(check-sat)
(pop)
(push)
(assert (le x1 com.lowagie.text.pdf.ByteBuffer))
(check-sat)
(push)
(assert (le x1 com.lowagie.text.pdf.ByteBuffer))
(check-sat)
(pop)
(push)
(assert (not (le x1 com.lowagie.text.pdf.ByteBuffer)))
(check-sat)
(pop)
(push)
(assert (le x0 java.lang.Integer))
(check-sat)
(push)
(assert (le x0 java.lang.Integer))
(check-sat)
(push)
(assert (le x1 com.lowagie.text.pdf.ByteBuffer))
(check-sat)
(pop)
(push)
(assert (not (le x1 com.lowagie.text.pdf.ByteBuffer)))
(check-sat)
(pop)
(push)
(assert (le x1 com.lowagie.text.pdf.ByteBuffer))
(check-sat)
(pop)
(push)
(assert (not (le x1 com.lowagie.text.pdf.ByteBuffer)))
(check-sat)
(pop)
(pop)
(push)
(assert (not (le x0 java.lang.Integer)))
(check-sat)
(pop)
(push)
(assert (le x1 com.lowagie.text.pdf.ByteBuffer))
(check-sat)
(pop)
(push)
(assert (not (le x1 com.lowagie.text.pdf.ByteBuffer)))
(check-sat)
(pop)
(pop)
(push)
(assert (not (le x0 java.lang.Integer)))
(check-sat)
(pop)
(pop)
(push)
(assert (not (le x1 com.lowagie.text.pdf.ByteBuffer)))
(check-sat)
(push)
(assert (le x1 com.lowagie.text.pdf.ByteBuffer))
(check-sat)
(pop)
(push)
(assert (not (le x1 com.lowagie.text.pdf.ByteBuffer)))
(check-sat)
(pop)
(push)
(assert (le x0 java.lang.Integer))
(check-sat)
(push)
(assert (le x0 java.lang.Integer))
(check-sat)
(pop)
(push)
(assert (not (le x0 java.lang.Integer)))
(check-sat)
(pop)
(push)
(assert (le x0 java.lang.Integer))
(check-sat)
(pop)
(push)
(assert (not (le x0 java.lang.Integer)))
(check-sat)
(pop)
(push)
(assert (le x1 com.lowagie.text.pdf.ByteBuffer))
(check-sat)
(pop)
(push)
(assert (not (le x1 com.lowagie.text.pdf.ByteBuffer)))
(check-sat)
(push)
(assert (le x0 java.lang.Integer))
(check-sat)
(pop)
(push)
(assert (not (le x0 java.lang.Integer)))
(check-sat)
(pop)
(pop)
(push)
(assert (le x1 com.lowagie.text.pdf.ByteBuffer))
(check-sat)
(pop)
(push)
(assert (not (le x1 com.lowagie.text.pdf.ByteBuffer)))
(check-sat)
(pop)
(push)
(assert (le x0 java.lang.Integer))
(check-sat)
(pop)
(push)
(assert (not (le x0 java.lang.Integer)))
(check-sat)
(pop)
(pop)
(push)
(assert (not (le x0 java.lang.Integer)))
(check-sat)
(pop)
(push)
(assert (le x0 java.lang.Integer))
(check-sat)
(pop)
(push)
(assert (not (le x0 java.lang.Integer)))
(check-sat)
(pop)
(pop)
(push)
(assert (le x1 java.lang.String))
(check-sat)
(push)
(assert (le x0 java.lang.Integer))
(check-sat)
(pop)
(push)
(assert (not (le x0 java.lang.Integer)))
(check-sat)
(pop)
(pop)
(push)
(assert (not (le x1 java.lang.String)))
(check-sat)
(push)
(assert (le x0 java.lang.Integer))
(check-sat)
(push)
(assert (le x1 java.lang.String))
(check-sat)
(pop)
(push)
(assert (not (le x1 java.lang.String)))
(check-sat)
(push)
(assert (le x1 java.lang.String))
(check-sat)
(pop)
(push)
(assert (not (le x1 java.lang.String)))
(check-sat)
(pop)
(pop)
(pop)
(push)
(assert (not (le x0 java.lang.Integer)))
(check-sat)
(pop)
(push)
(assert (le x0 java.lang.Integer))
(check-sat)
(push)
(assert (le x0 java.lang.Integer))
(check-sat)
(pop)
(push)
(assert (not (le x0 java.lang.Integer)))
(check-sat)
(pop)
(pop)
(push)
(assert (not (le x0 java.lang.Integer)))
(check-sat)
(pop)
(push)
(assert (le x1 java.lang.String))
(check-sat)
(pop)
(push)
(assert (not (le x1 java.lang.String)))
(check-sat)
(push)
(assert (le x0 java.lang.Integer))
(check-sat)
(pop)
(push)
(assert (not (le x0 java.lang.Integer)))
(check-sat)
(pop)
(push)
(assert (le x1 java.lang.String))
(check-sat)
(pop)
(push)
(assert (not (le x1 java.lang.String)))
(check-sat)
(pop)
(push)
(assert (le x0 java.lang.Integer))
(check-sat)
(push)
(assert (le x1 java.lang.String))
(check-sat)
(pop)
(push)
(assert (not (le x1 java.lang.String)))
(check-sat)
(pop)
(pop)
(push)
(assert (not (le x0 java.lang.Integer)))
(check-sat)
(pop)
(pop)
(pop)
(push)
(assert (le x1 java.lang.StringBuffer))
(check-sat)
(push)
(assert (le x1 java.lang.StringBuffer))
(check-sat)
(pop)
(push)
(assert (not (le x1 java.lang.StringBuffer)))
(check-sat)
(pop)
(push)
(assert (le x1 java.lang.StringBuffer))
(check-sat)
(push)
(assert (le x1 java.lang.StringBuffer))
(check-sat)
(pop)
(push)
(assert (not (le x1 java.lang.StringBuffer)))
(check-sat)
(pop)
(push)
(assert (le x0 java.lang.Integer))
(check-sat)
(pop)
(push)
(assert (not (le x0 java.lang.Integer)))
(check-sat)
(pop)
(pop)
(push)
(assert (not (le x1 java.lang.StringBuffer)))
(check-sat)
(pop)
(push)
(assert (le x1 java.lang.StringBuffer))
(check-sat)
(pop)
(push)
(assert (not (le x1 java.lang.StringBuffer)))
(check-sat)
(pop)
(pop)
(push)
(assert (not (le x1 java.lang.StringBuffer)))
(check-sat)
(push)
(assert (le x1 java.lang.StringBuffer))
(check-sat)
(pop)
(push)
(assert (not (le x1 java.lang.StringBuffer)))
(check-sat)
(push)
(assert (le x1 java.lang.StringBuffer))
(check-sat)
(pop)
(push)
(assert (not (le x1 java.lang.StringBuffer)))
(check-sat)
(pop)
(pop)
(push)
(assert (le x1 java.lang.StringBuffer))
(check-sat)
(pop)
(push)
(assert (not (le x1 java.lang.StringBuffer)))
(check-sat)
(pop)
(push)
(assert (le x0 java.lang.Integer))
(check-sat)
(pop)
(push)
(assert (not (le x0 java.lang.Integer)))
(check-sat)
(pop)
(pop)
(push)
(assert (le x0 java.lang.Integer))
(check-sat)
(pop)
(push)
(assert (not (le x0 java.lang.Integer)))
(check-sat)
(pop)
(push)
(assert (le x0 java.lang.Integer))
(check-sat)
(pop)
(push)
(assert (not (le x0 java.lang.Integer)))
(check-sat)
(pop)
(pop)
(push)
(assert (not (le x0 java.lang.Integer)))
(check-sat)
(push)
(assert (le x1 java.lang.String))
(check-sat)
(push)
(assert (le x0 java.lang.Integer))
(check-sat)
(pop)
(push)
(assert (not (le x0 java.lang.Integer)))
(check-sat)
(pop)
(push)
(assert (le x1 java.lang.String))
(check-sat)
(push)
(assert (le x0 java.lang.Integer))
(check-sat)
(pop)
(push)
(assert (not (le x0 java.lang.Integer)))
(check-sat)
(pop)
(pop)
(push)
(assert (not (le x1 java.lang.String)))
(check-sat)
(pop)
(push)
(assert (le x0 java.lang.Integer))
(check-sat)
(pop)
(push)
(assert (not (le x0 java.lang.Integer)))
(check-sat)
(pop)
(push)
(assert (le x0 java.lang.Integer))
(check-sat)
(pop)
(push)
(assert (not (le x0 java.lang.Integer)))
(check-sat)
(pop)
(push)
(assert (le x1 java.lang.String))
(check-sat)
(pop)
(push)
(assert (not (le x1 java.lang.String)))
(check-sat)
(pop)
(pop)
(push)
(assert (not (le x1 java.lang.String)))
(check-sat)
(pop)
(push)
(assert (le x1 java.lang.Object))
(check-sat)
(pop)
(push)
(assert (not (le x1 java.lang.Object)))
(check-sat)
(push)
(assert (not (le x1 com.lowagie.text.pdf.PdfObject)))
(check-sat)
(pop)
(push)
(assert (le x1 com.lowagie.text.pdf.PdfObject))
(check-sat)
(pop)
(pop)
(push)
(assert (le x0 java.lang.Integer))
(check-sat)
(pop)
(push)
(assert (not (le x0 java.lang.Integer)))
(check-sat)
(pop)
(push)
(assert (le x0 java.lang.Integer))
(check-sat)
(pop)
(push)
(assert (not (le x0 java.lang.Integer)))
(check-sat)
(pop)
(push)
(assert (le x0 java.lang.Integer))
(check-sat)
(pop)
(push)
(assert (not (le x0 java.lang.Integer)))
(check-sat)
(push)
(assert (le x1 java.lang.StringBuffer))
(check-sat)
(pop)
(push)
(assert (not (le x1 java.lang.StringBuffer)))
(check-sat)
(push)
(assert (le x1 java.lang.StringBuffer))
(check-sat)
(pop)
(push)
(assert (not (le x1 java.lang.StringBuffer)))
(check-sat)
(pop)
(push)
(assert (le x0 java.lang.Integer))
(check-sat)
(pop)
(push)
(assert (not (le x0 java.lang.Integer)))
(check-sat)
(pop)
(pop)
(push)
(assert (le x0 java.lang.Integer))
(check-sat)
(pop)
(push)
(assert (not (le x0 java.lang.Integer)))
(check-sat)
(push)
(assert (le x0 java.lang.Integer))
(check-sat)
(pop)
(push)
(assert (not (le x0 java.lang.Integer)))
(check-sat)
(push)
(assert (le x0 java.lang.Integer))
(check-sat)
(pop)
(push)
(assert (not (le x0 java.lang.Integer)))
(check-sat)
(pop)
(pop)
(pop)
(push)
(assert (le x0 java.lang.Integer))
(check-sat)
(pop)
(push)
(assert (not (le x0 java.lang.Integer)))
(check-sat)
(pop)
(push)
(assert (le x1 java.lang.StringBuffer))
(check-sat)
(push)
(assert (le x0 java.lang.Integer))
(check-sat)
(pop)
(push)
(assert (not (le x0 java.lang.Integer)))
(check-sat)
(push)
(assert (le x1 java.lang.StringBuffer))
(check-sat)
(pop)
(push)
(assert (not (le x1 java.lang.StringBuffer)))
(check-sat)
(pop)
(pop)
(pop)
(push)
(assert (not (le x1 java.lang.StringBuffer)))
(check-sat)
(pop)
(push)
(assert (le x1 java.lang.StringBuffer))
(check-sat)
(pop)
(push)
(assert (not (le x1 java.lang.StringBuffer)))
(check-sat)
(pop)
(push)
(assert (le x1 java.lang.StringBuffer))
(check-sat)
(pop)
(push)
(assert (not (le x1 java.lang.StringBuffer)))
(check-sat)
(pop)
(push)
(assert (le x0 java.lang.Integer))
(check-sat)
(pop)
(push)
(assert (not (le x0 java.lang.Integer)))
(check-sat)
(push)
(assert (le x0 java.lang.Integer))
(check-sat)
(pop)
(push)
(assert (not (le x0 java.lang.Integer)))
(check-sat)
(pop)
(pop)
(push)
(assert (le x1 com.lowagie.text.pdf.PdfIndirectObject))
(check-sat)
(push)
(assert (le x1 com.lowagie.text.pdf.PdfIndirectObject))
(check-sat)
(pop)
(push)
(assert (not (le x1 com.lowagie.text.pdf.PdfIndirectObject)))
(check-sat)
(pop)
(push)
(assert (le x1 com.lowagie.text.pdf.PdfIndirectObject))
(check-sat)
(pop)
(push)
(assert (not (le x1 com.lowagie.text.pdf.PdfIndirectObject)))
(check-sat)
(pop)
(pop)
(push)
(assert (not (le x1 com.lowagie.text.pdf.PdfIndirectObject)))
(check-sat)
(pop)
(pop)
(push)
(assert (le x1 java.lang.StringBuffer))
(check-sat)
(push)
(assert (le x0 java.lang.Integer))
(check-sat)
(pop)
(push)
(assert (not (le x0 java.lang.Integer)))
(check-sat)
(pop)
(push)
(assert (le x1 java.lang.StringBuffer))
(check-sat)
(push)
(assert (le x1 java.lang.StringBuffer))
(check-sat)
(pop)
(push)
(assert (not (le x1 java.lang.StringBuffer)))
(check-sat)
(pop)
(push)
(assert (le x1 java.lang.StringBuffer))
(check-sat)
(pop)
(push)
(assert (not (le x1 java.lang.StringBuffer)))
(check-sat)
(pop)
(pop)
(push)
(assert (not (le x1 java.lang.StringBuffer)))
(check-sat)
(pop)
(push)
(assert (le x0 java.lang.Integer))
(check-sat)
(pop)
(push)
(assert (not (le x0 java.lang.Integer)))
(check-sat)
(pop)
(push)
(assert (le x1 java.lang.StringBuffer))
(check-sat)
(pop)
(push)
(assert (not (le x1 java.lang.StringBuffer)))
(check-sat)
(pop)
(push)
(assert (le x0 java.lang.Integer))
(check-sat)
(pop)
(push)
(assert (not (le x0 java.lang.Integer)))
(check-sat)
(pop)
(pop)
(push)
(assert (not (le x1 java.lang.StringBuffer)))
(check-sat)
(pop)
(push)
(assert (le x0 java.lang.Integer))
(check-sat)
(pop)
(push)
(assert (not (le x0 java.lang.Integer)))
(check-sat)
(push)
(assert (le x1 java.lang.StringBuffer))
(check-sat)
(pop)
(push)
(assert (not (le x1 java.lang.StringBuffer)))
(check-sat)
(pop)
(push)
(assert (le x1 java.lang.StringBuffer))
(check-sat)
(pop)
(push)
(assert (not (le x1 java.lang.StringBuffer)))
(check-sat)
(pop)
(pop)
(push)
(assert (not (le x1 com.lowagie.text.pdf.PdfObject)))
(check-sat)
(push)
(assert (le x0 java.lang.Integer))
(check-sat)
(pop)
(push)
(assert (not (le x0 java.lang.Integer)))
(check-sat)
(pop)
(pop)
(push)
(assert (le x1 com.lowagie.text.pdf.PdfObject))
(check-sat)
(pop)
(pop)
